data/solutions/recovery/wellformed/moderate/flexible/wellformed_moderate_instance89/28.sol
Elapsed time: 31.78
Upper bound: 7247.0
Planning weighted value: 432291.0
C[0]=7247.0
C[1]=7237.0
C[2]=7225.0
C[3]=7224.0
C[4]=7217.0
C[5]=7213.0
y[0]=2
y[1]=5
y[2]=1
y[3]=5
y[4]=4
y[5]=0
y[6]=2
y[7]=2
y[8]=3
y[9]=1
y[10]=4
y[11]=4
y[12]=0
y[13]=5
y[14]=4
y[15]=5
y[16]=0
y[17]=1
y[18]=1
y[19]=0
y[20]=4
y[21]=1
y[22]=0
y[23]=2
y[24]=4
y[25]=4
y[26]=3
y[27]=0
y[28]=3
y[29]=3
y[30]=5
y[31]=2
y[32]=1
y[33]=0
y[34]=5
y[35]=1
y[36]=3
y[37]=3
y[38]=5
y[39]=3
y[40]=3
y[41]=2
