data/solutions/recovery/wellformed/moderate/flexible/wellformed_moderate_instance89/28.log

Log started (V12.6.3.0) Fri Apr 20 19:29:04 2018

New value for default parallel thread count: 1

Problem '/tmp/tmp10DwvQ.pyomo.lp' read.
Read time = 0.00 sec. (0.13 ticks)

Problem name         : /tmp/tmp10DwvQ.pyomo.lp
Objective sense      : Minimize
Variables            :     260  [Nneg: 1,  Binary: 252,  General Integer: 7]
Objective nonzeros   :       1
Linear constraints   :      97  [Less: 48,  Equal: 49]
  Nonzeros           :    8917
  RHS nonzeros       :      85

Variables            : Min LB: 0.000000         Max UB: 1.000000       
Objective nonzeros   : Min   : 1.000000         Max   : 1.000000       
Linear constraints   :
  Nonzeros           : Min   : 1.000000         Max   : 1980.000       
  RHS nonzeros       : Min   : 1.000000         Max   : 5.000000       
Tried aggregator 2 times.
MIP Presolve eliminated 42 rows and 6 columns.
Aggregator did 7 substitutions.
Reduced MIP has 48 rows, 247 columns, and 693 nonzeros.
Reduced MIP has 246 binaries, 1 generals, 0 SOSs, and 0 indicators.
Presolve time = 0.00 sec. (2.20 ticks)
Found incumbent of value 43363.000000 after 0.00 sec. (2.69 ticks)
Probing time = 0.00 sec. (0.26 ticks)
Cover probing fixed 0 vars, tightened 4 bounds.
Tried aggregator 1 time.
Reduced MIP has 48 rows, 247 columns, and 693 nonzeros.
Reduced MIP has 246 binaries, 1 generals, 0 SOSs, and 0 indicators.
Presolve time = 0.00 sec. (0.41 ticks)
Probing time = 0.00 sec. (0.18 ticks)
Clique table members: 41.
MIP emphasis: balance optimality and feasibility.
MIP search method: dynamic search.
Parallel mode: none, using 1 thread.
Root relaxation solution time = 0.00 sec. (0.20 ticks)

        Nodes                                         Cuts/
   Node  Left     Objective  IInf  Best Integer    Best Bound    ItCnt     Gap

*     0+    0                        43363.0000     1980.0000            95.43%
      0     0     7227.1667     9    43363.0000     7227.1667       10   83.33%
*     0+    0                         8285.0000     7227.1667            12.77%
      0     0     7228.0000    11     8285.0000      Fract: 7       34   12.76%
*     0+    0                         7913.0000     7228.0000             8.66%
      0     0     7228.0000    19     7913.0000      Cuts: 14       60    8.66%
      0     0     7228.0000    19     7913.0000    MIRcuts: 6       84    8.66%
*     0+    0                         7628.0000     7228.0000             5.24%
*     0+    0                         7523.0000     7228.0000             3.92%
*     0+    0                         7497.0000     7228.0000             3.59%
      0     2     7228.0000    11     7497.0000     7228.0000       84    3.59%
Elapsed time = 0.02 sec. (17.70 ticks, tree = 0.01 MB, solutions = 6)
*   100+   56                         7414.0000     7228.0000             2.51%
*   200+   96                         7373.0000     7228.0000             1.97%
*   470+  218                         7370.0000     7228.0000             1.93%
*  1166+  362                         7356.0000     7228.0000             1.74%
*  1166+  252                         7301.0000     7228.0000             1.00%
*  1266+  203                         7261.0000     7228.0000             0.45%
*  1366+  201                         7253.0000     7228.0000             0.34%
   1366   202     7228.0000    11     7253.0000     7228.0000     5635    0.34%
   1367   202     7228.0000    11     7253.0000     7228.0000     5635    0.34%
   1368   202     7228.0000    11     7253.0000     7228.0000     5637    0.34%
   1369   201     7228.0000    14     7253.0000     7228.0000     5646    0.34%
   1370   199        cutoff           7253.0000     7228.0000     5665    0.34%
   1371   199     7228.0000    13     7253.0000     7228.0000     5673    0.34%
   1372   200     7228.0000    13     7253.0000     7228.0000     5676    0.34%
   1373   201     7228.0000    12     7253.0000     7228.0000     5678    0.34%
   1374   201     7228.0000    13     7253.0000     7228.0000     5684    0.34%
*  1966+  423                         7247.0000     7228.0000             0.26%
   2166   471     7229.4048    16     7247.0000     7228.0000    12358    0.26%
Elapsed time = 0.93 sec. (1044.54 ticks, tree = 0.14 MB, solutions = 14)
   4956  2547     7237.7096    21     7247.0000     7228.0000    46897    0.26%
   4957  2548     7237.7283    21     7247.0000     7228.0000    46903    0.26%
   4958  2549     7237.7291    21     7247.0000     7228.0000    46904    0.26%
   4959  2550     7237.7882    20     7247.0000     7228.0000    46907    0.26%
   4960  2549        cutoff           7247.0000     7228.0000    46913    0.26%
   4961  2550     7237.8226    20     7247.0000     7228.0000    46915    0.26%
   4962  2550     7238.4660    18     7247.0000     7228.0000    46920    0.26%
   4963  2551     7239.0000    17     7247.0000     7228.0000    46921    0.26%
   4964  2552     7239.0000    20     7247.0000     7228.0000    46946    0.26%
   4965  2553     7241.1601    20     7247.0000     7228.0000    46964    0.26%
Elapsed time = 1.66 sec. (1999.62 ticks, tree = 0.79 MB, solutions = 14)
   6659  3687        cutoff           7247.0000     7228.0000    80027    0.26%
   6660  3686        cutoff           7247.0000     7228.0000    80215    0.26%
   6661  3685        cutoff           7247.0000     7228.0000    80338    0.26%
   6662  3685     7238.6222    34     7247.0000     7228.0000    80550    0.26%
   6663  3686     7238.6222    36     7247.0000     7228.0000    80553    0.26%
   6664  3687     7243.8609    28     7247.0000     7228.0000    80606    0.26%
   6665  3688     7243.8609    30     7247.0000     7228.0000    80613    0.26%
   6666  3689     7243.8609    27     7247.0000     7228.0000    80614    0.26%
   6667  3690     7243.8609    25     7247.0000     7228.0000    80615    0.26%
   6668  3691     7243.8609    28     7247.0000     7228.0000    80622    0.26%
Elapsed time = 2.35 sec. (2976.14 ticks, tree = 1.10 MB, solutions = 14)
   7906  4443        cutoff           7247.0000     7228.0000   112056    0.26%
   7907  4442        cutoff           7247.0000     7228.0000   112280    0.26%
   7908  4441        cutoff           7247.0000     7228.0000   112440    0.26%
   7909  4442     7239.7938    27     7247.0000     7228.0000   112577    0.26%
   7910  4443     7239.8448    27     7247.0000     7228.0000   112588    0.26%
   7911  4444     7239.9789    31     7247.0000     7228.0000   112603    0.26%
   7912  4445     7240.1463    31     7247.0000     7228.0000   112613    0.26%
   7913  4446     7240.2573    34     7247.0000     7228.0000   112619    0.26%
   7914  4447     7240.3255    33     7247.0000     7228.0000   112624    0.26%
   7915  4448     7240.3263    33     7247.0000     7228.0000   112625    0.26%
Elapsed time = 2.99 sec. (3952.59 ticks, tree = 1.41 MB, solutions = 14)
   9267  5334        cutoff           7247.0000     7228.0000   143046    0.26%
   9268  5335     7241.6990    37     7247.0000     7228.0000   143271    0.26%
   9269  5336     7241.7307    40     7247.0000     7228.0000   143280    0.26%
   9270  5337     7241.7376    36     7247.0000     7228.0000   143286    0.26%
   9271  5338     7241.8338    37     7247.0000     7228.0000   143296    0.26%
   9272  5339     7241.8541    35     7247.0000     7228.0000   143309    0.26%
   9273  5340     7241.8544    36     7247.0000     7228.0000   143311    0.26%
   9274  5341     7241.8549    36     7247.0000     7228.0000   143313    0.26%
   9275  5342     7242.3184    39     7247.0000     7228.0000   143357    0.26%
   9276  5343     7242.3204    39     7247.0000     7228.0000   143358    0.26%
Elapsed time = 3.64 sec. (4917.64 ticks, tree = 1.66 MB, solutions = 14)
  10365  6069     7233.7011    47     7247.0000     7228.0000   169981    0.26%
  10366  6070     7233.7116    49     7247.0000     7228.0000   169987    0.26%
  10367  6071     7234.0166    41     7247.0000     7228.0000   170021    0.26%
  10368  6072     7234.1198    48     7247.0000     7228.0000   170048    0.26%
  10369  6073     7235.1104    43     7247.0000     7228.0000   170096    0.26%
  10370  6074     7235.1315    43     7247.0000     7228.0000   170102    0.26%
  10371  6075     7235.5911    42     7247.0000     7228.0000   170136    0.26%
  10372  6076     7235.5934    43     7247.0000     7228.0000   170137    0.26%
  10373  6077     7237.0623    43     7247.0000     7228.0000   170180    0.26%
  10374  6078     7237.3835    38     7247.0000     7228.0000   170188    0.26%
Elapsed time = 4.27 sec. (5881.44 ticks, tree = 1.86 MB, solutions = 14)
  11224  6676        cutoff           7247.0000     7228.0000   189237    0.26%
  11225  6675        cutoff           7247.0000     7228.0000   189469    0.26%
  11226  6676     7234.0597    41     7247.0000     7228.0000   189658    0.26%
  11227  6677     7234.1802    42     7247.0000     7228.0000   189676    0.26%
  11228  6678     7234.2029    39     7247.0000     7228.0000   189682    0.26%
  11229  6679     7234.2239    39     7247.0000     7228.0000   189683    0.26%
  11230  6680     7235.4381    43     7247.0000     7228.0000   189728    0.26%
  11231  6681     7238.9918    38     7247.0000     7228.0000   189816    0.26%
  11232  6682     7235.6494    40     7247.0000     7228.0000   189822    0.26%
  11233  6683     7235.6967    37     7247.0000     7228.0000   189827    0.26%
Elapsed time = 5.13 sec. (6863.89 ticks, tree = 2.04 MB, solutions = 14)
  12274  7411     7228.0000    46     7247.0000     7228.0000   212825    0.26%
  12275  7412     7228.0000    46     7247.0000     7228.0000   212837    0.26%
  12276  7413     7228.0000    43     7247.0000     7228.0000   212876    0.26%
  12277  7414     7228.0000    51     7247.0000     7228.0000   213051    0.26%
  12278  7415     7228.0000    47     7247.0000     7228.0000   213056    0.26%
  12279  7416     7228.0000    46     7247.0000     7228.0000   213058    0.26%
  12280  7417     7228.0000    50     7247.0000     7228.0000   213138    0.26%
  12281  7418     7228.0000    49     7247.0000     7228.0000   213139    0.26%
  12282  7419     7228.0918    48     7247.0000     7228.0000   213253    0.26%
  12283  7420     7228.1395    50     7247.0000     7228.0000   213259    0.26%
Elapsed time = 5.77 sec. (7839.03 ticks, tree = 2.26 MB, solutions = 14)
  13157  8049     7233.1701    52     7247.0000     7228.0000   235195    0.26%
  13158  8050     7233.2105    54     7247.0000     7228.0000   235206    0.26%
  13159  8051     7233.2964    51     7247.0000     7228.0000   235215    0.26%
  13160  8052     7233.2986    50     7247.0000     7228.0000   235217    0.26%
  13161  8053     7233.2992    50     7247.0000     7228.0000   235218    0.26%
  13162  8054     7233.7081    55     7247.0000     7228.0000   235242    0.26%
  13163  8055     7233.9788    49     7247.0000     7228.0000   235257    0.26%
  13164  8056     7235.5951    56     7247.0000     7228.0000   235305    0.26%
  13165  8057     7235.6400    54     7247.0000     7228.0000   235311    0.26%
  13166  8058     7235.7480    54     7247.0000     7228.0000   235320    0.26%
Elapsed time = 6.38 sec. (8798.12 ticks, tree = 2.74 MB, solutions = 14)
  14145  8666     7235.4316    53     7247.0000     7228.4238   257373    0.26%
  14146  8667     7235.5517    50     7247.0000     7228.4238   257387    0.26%
  14147  8668     7235.5541    49     7247.0000     7228.4238   257388    0.26%
  14148  8669     7240.7655    44     7247.0000     7228.4238   257488    0.26%
  14149  8670     7240.8108    41     7247.0000     7228.4238   257499    0.26%
  14150  8671     7240.8449    41     7247.0000     7228.4238   257508    0.26%
  14151  8672     7240.8453    42     7247.0000     7228.4238   257511    0.26%
  14152  8673     7241.9638    38     7247.0000     7228.4238   257538    0.26%
  14153  8674     7241.9639    42     7247.0000     7228.4238   257541    0.26%
  17342 10425        cutoff           7247.0000     7229.5181   324060    0.24%
Elapsed time = 8.84 sec. (12618.49 ticks, tree = 3.94 MB, solutions = 14)
  21564 12003     7234.6441    55     7247.0000     7231.3955   418785    0.22%
  21565 12004     7234.6975    55     7247.0000     7231.3955   418794    0.22%
  21566 12005     7234.7399    55     7247.0000     7231.3955   418802    0.22%
  21567 12006     7236.4606    46     7247.0000     7231.3955   418861    0.22%
  21568 12007     7236.4779    46     7247.0000     7231.3955   418864    0.22%
  21569 12008     7236.8403    48     7247.0000     7231.3955   418888    0.22%
  21570 12009     7236.9060    46     7247.0000     7231.3955   418895    0.22%
  21571 12010     7236.9136    47     7247.0000     7231.3955   418898    0.22%
  21572 12011     7237.1870    46     7247.0000     7231.3955   418924    0.22%
  21573 12012     7237.1875    46     7247.0000     7231.3955   418925    0.22%
Elapsed time = 11.35 sec. (16438.62 ticks, tree = 4.62 MB, solutions = 14)
  26194 13614        cutoff           7247.0000     7233.1942   514099    0.19%
  26195 13613        cutoff           7247.0000     7233.1952   514140    0.19%
  26196 13612        cutoff           7247.0000     7233.1964   514171    0.19%
  26197 13611        cutoff           7247.0000     7233.1968   514216    0.19%
  26198 13612     7234.3408    44     7247.0000     7233.1981   514252    0.19%
  26199 13613     7234.3420    42     7247.0000     7233.1981   514253    0.19%
  26200 13614     7234.7201    43     7247.0000     7233.1981   514284    0.19%
  26201 13615     7234.7796    43     7247.0000     7233.1981   514291    0.19%
  26202 13616     7243.0275    43     7247.0000     7233.1981   514347    0.19%
  26203 13617     7243.0277    44     7247.0000     7233.1981   514348    0.19%
Elapsed time = 13.88 sec. (20262.30 ticks, tree = 5.15 MB, solutions = 14)
  31049 15074     7240.8433    42     7247.0000     7234.8144   608880    0.17%
  31050 15074     7245.9868    31     7247.0000     7234.8144   608949    0.17%
  31051 15073        cutoff           7247.0000     7234.8144   608950    0.17%
  31052 15074     7236.1126    34     7247.0000     7234.8155   608984    0.17%
  31053 15075     7237.1540    35     7247.0000     7234.8155   609044    0.17%
  31054 15076     7237.1576    33     7247.0000     7234.8155   609049    0.17%
  31055 15077     7237.5494    35     7247.0000     7234.8155   609080    0.17%
  31056 15078     7237.5824    33     7247.0000     7234.8155   609089    0.17%
  31057 15079     7237.6204    34     7247.0000     7234.8155   609097    0.17%
  31058 15080     7237.6236    34     7247.0000     7234.8155   609100    0.17%
Elapsed time = 16.47 sec. (24086.61 ticks, tree = 5.82 MB, solutions = 14)
  36088 16202     7237.9414    35     7247.0000     7236.1311   703721    0.15%
  36089 16203     7237.9415    33     7247.0000     7236.1311   703722    0.15%
  36090 16204     7238.0150    32     7247.0000     7236.1311   703736    0.15%
  36091 16205     7238.6574    33     7247.0000     7236.1311   703753    0.15%
  36092 16204        cutoff           7247.0000     7236.1311   703773    0.15%
  36093 16203        cutoff           7247.0000     7236.1311   703778    0.15%
  36094 16202    infeasible           7247.0000     7236.1322   703778    0.15%
  36095 16201        cutoff           7247.0000     7236.1328   703805    0.15%
  36096 16202     7239.5065    45     7247.0000     7236.1330   703899    0.15%
  36097 16203     7241.1320    37     7247.0000     7236.1330   703927    0.15%
Elapsed time = 19.01 sec. (27908.27 ticks, tree = 6.49 MB, solutions = 14)
  41270 16251        cutoff           7247.0000     7237.5162   802679    0.13%
  41271 16250        cutoff           7247.0000     7237.5176   802697    0.13%
  41272 16249        cutoff           7247.0000     7237.5186   802720    0.13%
  41273 16250     7239.7872    34     7247.0000     7237.5188   802762    0.13%
  41274 16249        cutoff           7247.0000     7237.5188   802782    0.13%
  41275 16248        cutoff           7247.0000     7237.5188   802796    0.13%
  41276 16247        cutoff           7247.0000     7237.5190   802809    0.13%
  41277 16248     7244.4985    41     7247.0000     7237.5199   802876    0.13%
  41278 16249     7244.5107    38     7247.0000     7237.5199   802880    0.13%
  41279 16249     7245.7212    30     7247.0000     7237.5199   802907    0.13%
Elapsed time = 21.53 sec. (31731.07 ticks, tree = 6.37 MB, solutions = 14)
  46637 15351        cutoff           7247.0000     7238.8672   900933    0.11%
  46638 15350        cutoff           7247.0000     7238.8679   900959    0.11%
  46639 15351     7242.5016    38     7247.0000     7238.8680   901021    0.11%
  46640 15352     7242.9922    38     7247.0000     7238.8680   901039    0.11%
  46641 15351        cutoff           7247.0000     7238.8680   901045    0.11%
  46642 15350        cutoff           7247.0000     7238.8680   901057    0.11%
  46643 15349        cutoff           7247.0000     7238.8680   901065    0.11%
  46644 15348        cutoff           7247.0000     7238.8682   901091    0.11%
  46645 15347        cutoff           7247.0000     7238.8684   901093    0.11%
  46646 15346        cutoff           7247.0000     7238.8685   901096    0.11%
Elapsed time = 24.00 sec. (35552.23 ticks, tree = 6.02 MB, solutions = 14)
  52533 12751     7244.4322    30     7247.0000     7240.4693  1002022    0.09%
  52534 12750        cutoff           7247.0000     7240.4693  1002041    0.09%
  52535 12749        cutoff           7247.0000     7240.4693  1002047    0.09%
  52536 12748        cutoff           7247.0000     7240.4696  1002063    0.09%
  52537 12747        cutoff           7247.0000     7240.4699  1002070    0.09%
  52538 12746    infeasible           7247.0000     7240.4708  1002070    0.09%
  52539 12745        cutoff           7247.0000     7240.4724  1002138    0.09%
  52540 12744        cutoff           7247.0000     7240.4732  1002157    0.09%
  52541 12743    infeasible           7247.0000     7240.4737  1002157    0.09%
  52542 12742        cutoff           7247.0000     7240.4745  1002179    0.09%
Elapsed time = 26.51 sec. (39372.23 ticks, tree = 5.08 MB, solutions = 14)
  59263  9046     7242.6970    38     7247.0000     7242.1222  1101146    0.07%
  59264  9047     7242.7405    34     7247.0000     7242.1222  1101150    0.07%
  59265  9048     7244.4000    37     7247.0000     7242.1222  1101194    0.07%
  59266  9047        cutoff           7247.0000     7242.1222  1101197    0.07%
  59267  9046        cutoff           7247.0000     7242.1222  1101212    0.07%
  59268  9045        cutoff           7247.0000     7242.1222  1101217    0.07%
  59269  9044        cutoff           7247.0000     7242.1228  1101224    0.07%
  59270  9043        cutoff           7247.0000     7242.1229  1101230    0.07%
  59271  9042        cutoff           7247.0000     7242.1230  1101242    0.07%
  59272  9041        cutoff           7247.0000     7242.1238  1101257    0.07%
Elapsed time = 29.01 sec. (43191.61 ticks, tree = 3.77 MB, solutions = 14)
  67855  1715        cutoff           7247.0000     7244.7669  1187632    0.03%
  67856  1714        cutoff           7247.0000     7244.7677  1187634    0.03%
  67857  1713        cutoff           7247.0000     7244.7691  1187640    0.03%
  67858  1712        cutoff           7247.0000     7244.7691  1187644    0.03%
  67859  1711        cutoff           7247.0000     7244.7694  1187648    0.03%
  67860  1710        cutoff           7247.0000     7244.7701  1187654    0.03%
  67861  1709        cutoff           7247.0000     7244.7703  1187670    0.03%
  67862  1708        cutoff           7247.0000     7244.7711  1187674    0.03%
  67863  1707        cutoff           7247.0000     7244.7716  1187678    0.03%
  67864  1706        cutoff           7247.0000     7244.7718  1187681    0.03%
Elapsed time = 31.42 sec. (47009.59 ticks, tree = 1.08 MB, solutions = 14)

Cover cuts applied:  43
Mixed integer rounding cuts applied:  193
Zero-half cuts applied:  1
Gomory fractional cuts applied:  3

Root node processing (before b&c):
  Real time             =    0.02 sec. (17.72 ticks)
Sequential b&c:
  Real time             =   31.74 sec. (47605.88 ticks)
                          ------------
Total (root+branch&cut) =   31.76 sec. (47623.60 ticks)

Solution pool: 14 solutions saved.

MIP - Integer optimal solution:  Objective =  7.2470000000e+03
Solution time =   31.76 sec.  Iterations = 1196846  Nodes = 69635
Deterministic time = 47623.60 ticks  (1499.25 ticks/sec)


Incumbent solution written to file '/tmp/tmp8WkOVB.cplex.sol'.
